c description: Random 3-CNF over 19 variables and 81 clauses
c generator: CNFgen (0.9.2)
c copyright: (C) 2012-2022 Massimo Lauria <massimo.lauria@uniroma1.it>
c url: https://massimolauria.net/cnfgen
c command line: cnfgen --output CNF_4.28/19_bit_81_480.cnf randkcnf 3 19 81
c
p cnf 19 81
-4 7 -16 0
-11 -12 17 0
9 -13 19 0
-9 18 19 0
3 -6 17 0
6 -10 17 0
-6 -7 15 0
-3 -8 10 0
6 9 17 0
-9 -10 16 0
5 6 -11 0
4 -8 -10 0
2 7 -8 0
1 -10 -17 0
-6 -12 -16 0
13 18 19 0
-1 3 -12 0
6 -14 16 0
-3 -17 -19 0
3 7 8 0
-1 -8 -15 0
5 15 19 0
-6 -8 13 0
1 4 -8 0
4 -6 -7 0
4 5 16 0
6 -10 -14 0
2 -3 11 0
3 -14 -15 0
-7 -11 -19 0
-1 2 11 0
3 10 12 0
-2 12 -15 0
-7 12 -19 0
3 7 -18 0
8 12 18 0
-4 13 14 0
-14 15 -19 0
-2 -7 16 0
5 -6 -14 0
6 -8 -12 0
-1 -11 -16 0
-4 -10 14 0
9 11 -16 0
5 -13 -16 0
14 16 18 0
-9 14 -19 0
6 15 -18 0
-1 -7 -18 0
5 15 -16 0
7 8 -15 0
14 -16 19 0
-5 -7 -14 0
1 -5 -14 0
-1 2 6 0
9 15 -16 0
-6 10 18 0
1 10 17 0
10 15 18 0
-7 15 -16 0
-3 6 -12 0
-4 9 -16 0
13 15 17 0
-2 -15 -19 0
-6 -13 15 0
-3 -6 12 0
-6 -15 -19 0
-10 -11 -12 0
3 4 9 0
-11 -12 -18 0
3 8 -19 0
6 8 -17 0
-4 13 16 0
1 13 19 0
-1 16 -19 0
-1 2 10 0
-3 6 13 0
4 -8 -13 0
6 -8 16 0
-3 -10 18 0
1 -3 -14 0
